(set-info :smt-lib-version 2.6)
(set-info :category "crafted")
(set-logic QF_FFA)
(define-sort FF0 () (_ FiniteField 52435875175126190479447740508185965837690552500527637822603658699938581184513))
(declare-fun a () Bool)
(declare-fun b () Bool)
(declare-fun d () Bool)
(declare-fun c () Bool)
(declare-fun out () FF0)
(declare-fun _148 () FF0)
(declare-fun _61 () FF0)
(declare-fun _147 () FF0)
(declare-fun _105 () FF0)
(declare-fun _146 () FF0)
(declare-fun _139 () FF0)
(declare-fun _145 () FF0)
(declare-fun _80 () FF0)
(declare-fun _144 () FF0)
(declare-fun _141 () FF0)
(declare-fun _120 () FF0)
(declare-fun _82 () FF0)
(declare-fun _0 () FF0)
(declare-fun _75 () FF0)
(declare-fun _74 () FF0)
(declare-fun _138 () FF0)
(declare-fun _81 () FF0)
(declare-fun _137 () FF0)
(declare-fun _97 () FF0)
(declare-fun _136 () FF0)
(declare-fun _54 () FF0)
(declare-fun _135 () FF0)
(declare-fun _112 () FF0)
(declare-fun _111 () FF0)
(declare-fun _134 () FF0)
(declare-fun _57 () FF0)
(declare-fun _133 () FF0)
(declare-fun _114 () FF0)
(declare-fun _132 () FF0)
(declare-fun _106 () FF0)
(declare-fun _131 () FF0)
(declare-fun _119 () FF0)
(declare-fun _130 () FF0)
(declare-fun _129 () FF0)
(declare-fun _126 () FF0)
(declare-fun _125 () FF0)
(declare-fun _128 () FF0)
(declare-fun _55 () FF0)
(declare-fun _66 () FF0)
(declare-fun _65 () FF0)
(declare-fun _85 () FF0)
(declare-fun _26 () FF0)
(declare-fun _118 () FF0)
(declare-fun _89 () FF0)
(declare-fun _117 () FF0)
(declare-fun _116 () FF0)
(declare-fun _115 () FF0)
(declare-fun _87 () FF0)
(declare-fun _6 () FF0)
(declare-fun _103 () FF0)
(declare-fun _27 () FF0)
(declare-fun _25 () FF0)
(declare-fun _35 () FF0)
(declare-fun _34 () FF0)
(declare-fun _98 () FF0)
(declare-fun _102 () FF0)
(declare-fun _101 () FF0)
(declare-fun _38 () FF0)
(declare-fun _60 () FF0)
(declare-fun _96 () FF0)
(declare-fun _94 () FF0)
(declare-fun _93 () FF0)
(declare-fun _1 () FF0)
(declare-fun _39 () FF0)
(declare-fun _69 () FF0)
(declare-fun _79 () FF0)
(declare-fun _50 () FF0)
(declare-fun _78 () FF0)
(declare-fun _43 () FF0)
(declare-fun _14 () FF0)
(declare-fun _3 () FF0)
(declare-fun _46 () FF0)
(declare-fun _7 () FF0)
(declare-fun _44 () FF0)
(declare-fun _42 () FF0)
(declare-fun _41 () FF0)
(declare-fun _40 () FF0)
(declare-fun _24 () FF0)
(declare-fun _29 () FF0)
(declare-fun _12 () FF0)
(declare-fun _11 () FF0)
(declare-fun _23 () FF0)
(declare-fun _22 () FF0)
(declare-fun _21 () FF0)
(declare-fun _20 () FF0)
(declare-fun _19 () FF0)
(declare-fun _18 () FF0)
(declare-fun _17 () FF0)
(declare-fun _2 () FF0)
(declare-fun _16 () FF0)
(declare-fun _15 () FF0)
(declare-fun _5 () FF0)
(declare-fun _4 () FF0)
(assert 
  (let ((let0 a))
  (let ((let1 b))
  (let ((let2 d))
  (let ((let3 c))
  (let ((let4 (and let0 let3 let2 let0)))
  (let ((let5 (ite let4 let1 let1)))
  (let ((let6 (or let5 let0)))
  (let ((let7 (ite let3 let4 let5)))
  (let ((let8 (=> let2 let1)))
  (let ((let9 (and let6 let8 let3 let3 let7 let8 let4 let8 let7 let6 let4)))
  (let ((let10 (=> let9 let5)))
  (let ((let11 (=> let7 let10)))
  (let ((let12 (= let11 let6)))
  (let ((let13 (= let5 let7)))
  (let ((let14 (ite let2 let9 let13)))
  (let ((let15 (not let14)))
  (let ((let16 (or let14 let9)))
  (let ((let17 (ite let16 let16 let16)))
  (let ((let18 (or let13 let17)))
  (let ((let19 (or let13 let14 let9 let14 let18)))
  (let ((let20 (= let19 let2)))
  (let ((let21 (= let20 let20)))
  (let ((let22 (and let21 let15)))
  (let ((let23 (= let22 let12)))
  (let ((let24 (not let18)))
  (let ((let25 (not let17)))
  (let ((let26 (= let6 let19)))
  (let ((let27 (not let26)))
  (let ((let28 (not let10)))
  (let ((let29 (or let28 let27)))
  (let ((let30 (= let29 let25)))
  (let ((let31 (= let30 let17)))
  (let ((let32 (not let31)))
  (let ((let33 (=> let32 let24)))
  (let ((let34 (=> let33 let23)))
  (let ((let35 (ite let26 let2 let0)))
  (let ((let36 (not let35)))
  (let ((let37 (= let36 let8)))
  (let ((let38 (ite let18 let19 let26)))
  (let ((let39 (not let38)))
  (let ((let40 (and let25 let24 let27 let39)))
  (let ((let41 (=> let40 let37)))
  (let ((let42 (= let41 let21)))
  (let ((let43 (not let24)))
  (let ((let44 (or let43 let43)))
  (let ((let45 (not let43)))
  (let ((let46 (= let45 let44)))
  (let ((let47 (or let1 let35)))
  (let ((let48 (ite let41 let47 let46)))
  (let ((let49 (and let48 let42 let33)))
  (let ((let50 (= let38 let16)))
  (let ((let51 (not let30)))
  (let ((let52 (or let32 let51 let12 let50)))
  (let ((let53 (not let52)))
  (let ((let54 (and let53 let49)))
  (let ((let55 (= let50 let15)))
  (let ((let56 (ite let55 let22 let28)))
  (let ((let57 (=> let12 let52)))
  (let ((let58 (or let4 let46 let51 let35 let44 let47)))
  (let ((let59 (= let44 let11)))
  (let ((let60 (ite let31 let36 let59)))
  (let ((let61 (=> let29 let39)))
  (let ((let62 (or let51 let61 let60)))
  (let ((let63 (and let62 let58 let55 let57 let31 let21 let56 let29 let49 let41 let38)))
  (let ((let64 (not let40)))
  (let ((let65 (= let0 let42)))
  (let ((let66 (not let59)))
  (let ((let67 (and let66 let65 let64 let63 let54 let34)))
  (let ((let68 out))
  (let ((let69 (as ff1 FF0)))
  (let ((let70 (= let69 let68)))
  (let ((let71 (= let70 let67)))
  (let ((let72 (as ff0 FF0)))
  (let ((let73 (= let72 let68)))
  (let ((let74 (or let70 let73)))
  (let ((let75 (and let74 let71)))
  (let ((let76 _148))
  (let ((let77 _61))
  (let ((let78 _147))
  (let ((let79 (ff.mul let78 let77)))
  (let ((let80 (= let79 let76)))
  (let ((let81 _105))
  (let ((let82 _146))
  (let ((let83 (ff.mul let82 let81)))
  (let ((let84 (= let83 let78)))
  (let ((let85 _139))
  (let ((let86 _145))
  (let ((let87 (ff.mul let86 let85)))
  (let ((let88 (= let87 let82)))
  (let ((let89 (as ff52435875175126190479447740508185965837690552500527637822603658699938581184512 FF0)))
  (let ((let90 _80))
  (let ((let91 (ff.mul let90 let89)))
  (let ((let92 (ff.add let91 let69)))
  (let ((let93 _144))
  (let ((let94 (ff.mul let93 let92)))
  (let ((let95 (= let94 let86)))
  (let ((let96 _141))
  (let ((let97 (ff.mul let96 let89)))
  (let ((let98 (ff.add let97 let69)))
  (let ((let99 _120))
  (let ((let100 (ff.mul let99 let98)))
  (let ((let101 (= let100 let93)))
  (let ((let102 _82))
  (let ((let103 _0))
  (let ((let104 (ff.add let103 let102 let89)))
  (let ((let105 (ff.mul let104 let104)))
  (let ((let106 (= let105 let96)))
  (let ((let107 _75))
  (let ((let108 _74))
  (let ((let109 (ff.add let108 let107)))
  (let ((let110 _138))
  (let ((let111 (ff.mul let110 let109)))
  (let ((let112 (= let111 let85)))
  (let ((let113 _81))
  (let ((let114 _137))
  (let ((let115 (ff.mul let114 let113)))
  (let ((let116 (= let115 let110)))
  (let ((let117 _97))
  (let ((let118 _136))
  (let ((let119 (ff.mul let118 let117)))
  (let ((let120 (= let119 let114)))
  (let ((let121 _54))
  (let ((let122 _135))
  (let ((let123 (ff.mul let122 let121)))
  (let ((let124 (= let123 let118)))
  (let ((let125 _112))
  (let ((let126 _111))
  (let ((let127 (ff.add let126 let125)))
  (let ((let128 _134))
  (let ((let129 (ff.mul let128 let127)))
  (let ((let130 (= let129 let122)))
  (let ((let131 _57))
  (let ((let132 (ff.mul let131 let89)))
  (let ((let133 (ff.add let132 let69)))
  (let ((let134 _133))
  (let ((let135 (ff.mul let134 let133)))
  (let ((let136 (= let135 let128)))
  (let ((let137 _114))
  (let ((let138 _132))
  (let ((let139 (ff.mul let138 let137)))
  (let ((let140 (= let139 let134)))
  (let ((let141 _106))
  (let ((let142 (ff.mul let141 let89)))
  (let ((let143 (ff.add let142 let69)))
  (let ((let144 _131))
  (let ((let145 (ff.mul let144 let143)))
  (let ((let146 (= let145 let138)))
  (let ((let147 _119))
  (let ((let148 _130))
  (let ((let149 (ff.mul let148 let147)))
  (let ((let150 (= let149 let144)))
  (let ((let151 (ff.mul let148 let89)))
  (let ((let152 _129))
  (let ((let153 _126))
  (let ((let154 _125))
  (let ((let155 (ff.add let154 let153 let152 let151)))
  (let ((let156 (ff.add let154 let153)))
  (let ((let157 (ff.mul let152 let156)))
  (let ((let158 (= let157 let155)))
  (let ((let159 (ff.mul let152 let89)))
  (let ((let160 _128))
  (let ((let161 _55))
  (let ((let162 (ff.add let161 let160 let159)))
  (let ((let163 (ff.mul let161 let160)))
  (let ((let164 (= let163 let162)))
  (let ((let165 (as ff2 FF0)))
  (let ((let166 (ff.mul let160 let89)))
  (let ((let167 (ff.mul let107 let89)))
  (let ((let168 (ff.mul let108 let89)))
  (let ((let169 (ff.mul let121 let89)))
  (let ((let170 (ff.add let169 let168 let167 let166 let165)))
  (let ((let171 (ff.add let168 let167 let69)))
  (let ((let172 (ff.add let169 let69)))
  (let ((let173 (ff.mul let172 let171)))
  (let ((let174 (= let173 let170)))
  (let ((let175 (ff.mul let99 let89)))
  (let ((let176 (ff.add let175 let69)))
  (let ((let177 (ff.mul let131 let176)))
  (let ((let178 (= let177 let153)))
  (let ((let179 _66))
  (let ((let180 (ff.mul let179 let89)))
  (let ((let181 _65))
  (let ((let182 (ff.mul let181 let89)))
  (let ((let183 (ff.add let182 let180 let69)))
  (let ((let184 (ff.mul let133 let183)))
  (let ((let185 (= let184 let154)))
  (let ((let186 _85))
  (let ((let187 _26))
  (let ((let188 (ff.mul let187 let89)))
  (let ((let189 (ff.add let188 let186)))
  (let ((let190 (ff.mul let189 let189)))
  (let ((let191 (= let190 let99)))
  (let ((let192 (ff.mul let147 let89)))
  (let ((let193 _118))
  (let ((let194 _89))
  (let ((let195 (ff.add let194 let193 let192)))
  (let ((let196 (ff.mul let193 let194)))
  (let ((let197 (= let196 let195)))
  (let ((let198 (ff.mul let193 let89)))
  (let ((let199 _117))
  (let ((let200 (ff.add let186 let199 let198)))
  (let ((let201 (ff.mul let199 let186)))
  (let ((let202 (= let201 let200)))
  (let ((let203 (ff.mul let199 let89)))
  (let ((let204 _116))
  (let ((let205 (ff.add let181 let179 let204 let203)))
  (let ((let206 (ff.add let181 let179)))
  (let ((let207 (ff.mul let204 let206)))
  (let ((let208 (= let207 let205)))
  (let ((let209 (ff.mul let204 let89)))
  (let ((let210 _115))
  (let ((let211 (ff.add let161 let210 let209)))
  (let ((let212 (ff.mul let210 let161)))
  (let ((let213 (= let212 let211)))
  (let ((let214 (ff.mul let210 let89)))
  (let ((let215 _87))
  (let ((let216 (ff.mul let215 let89)))
  (let ((let217 _6))
  (let ((let218 (ff.add let217 let216 let214 let69)))
  (let ((let219 (ff.add let216 let69)))
  (let ((let220 (ff.mul let217 let219)))
  (let ((let221 (= let220 let218)))
  (let ((let222 (ff.mul let137 let89)))
  (let ((let223 _103))
  (let ((let224 _27))
  (let ((let225 (ff.add let224 let223 let222)))
  (let ((let226 (ff.mul let224 let223)))
  (let ((let227 (= let226 let225)))
  (let ((let228 _25))
  (let ((let229 (ff.mul let228 let89)))
  (let ((let230 (ff.add let229 let69)))
  (let ((let231 (ff.mul let141 let230)))
  (let ((let232 (= let231 let125)))
  (let ((let233 _35))
  (let ((let234 (ff.mul let233 let89)))
  (let ((let235 _34))
  (let ((let236 (ff.mul let235 let89)))
  (let ((let237 (ff.add let236 let234 let69)))
  (let ((let238 (ff.mul let143 let237)))
  (let ((let239 (= let238 let126)))
  (let ((let240 _98))
  (let ((let241 (ff.mul let240 let89)))
  (let ((let242 (ff.add let235 let233 let241)))
  (let ((let243 (ff.mul let242 let242)))
  (let ((let244 (= let243 let141)))
  (let ((let245 (ff.mul let223 let89)))
  (let ((let246 (ff.add let245 let69)))
  (let ((let247 (ff.mul let246 let117)))
  (let ((let248 (= let247 let81)))
  (let ((let249 _102))
  (let ((let250 (ff.add let241 let249 let245 let69)))
  (let ((let251 (ff.add let241 let69)))
  (let ((let252 (ff.mul let249 let251)))
  (let ((let253 (= let252 let250)))
  (let ((let254 (ff.mul let249 let89)))
  (let ((let255 _101))
  (let ((let256 (ff.mul let224 let89)))
  (let ((let257 (ff.add let256 let255 let254 let69)))
  (let ((let258 (ff.add let256 let69)))
  (let ((let259 (ff.mul let255 let258)))
  (let ((let260 (= let259 let257)))
  (let ((let261 (ff.mul let255 let89)))
  (let ((let262 (ff.add let161 let131 let261)))
  (let ((let263 (ff.mul let131 let161)))
  (let ((let264 (= let263 let262)))
  (let ((let265 _38))
  (let ((let266 (ff.mul let265 let89)))
  (let ((let267 (ff.add let266 let108 let107)))
  (let ((let268 (ff.mul let267 let267)))
  (let ((let269 (= let268 let240)))
  (let ((let270 _60))
  (let ((let271 _96))
  (let ((let272 (ff.mul let271 let270)))
  (let ((let273 (= let272 let117)))
  (let ((let274 (ff.mul let102 let89)))
  (let ((let275 (ff.add let274 let69)))
  (let ((let276 _94))
  (let ((let277 _93))
  (let ((let278 (ff.add let277 let276)))
  (let ((let279 (ff.mul let278 let275)))
  (let ((let280 (= let279 let271)))
  (let ((let281 (ff.mul let113 let89)))
  (let ((let282 (ff.add let281 let69)))
  (let ((let283 (ff.mul let282 let219)))
  (let ((let284 (= let283 let276)))
  (let ((let285 (ff.mul let113 let194)))
  (let ((let286 (= let285 let277)))
  (let ((let287 (ff.mul let194 let89)))
  (let ((let288 _1))
  (let ((let289 (ff.add let288 let181 let179 let287)))
  (let ((let290 (ff.mul let288 let206)))
  (let ((let291 (= let290 let289)))
  (let ((let292 (ff.mul let186 let89)))
  (let ((let293 _39))
  (let ((let294 (ff.mul let293 let89)))
  (let ((let295 (ff.add let294 let292 let69)))
  (let ((let296 (ff.mul let295 let295)))
  (let ((let297 (= let296 let215)))
  (let ((let298 (ff.mul let293 let165)))
  (let ((let299 (ff.add let298 let292)))
  (let ((let300 (ff.mul let293 let293)))
  (let ((let301 (= let300 let299)))
  (let ((let302 (ff.add let113 let89)))
  (let ((let303 (ff.mul let302 let302)))
  (let ((let304 (= let303 let102)))
  (let ((let305 _69))
  (let ((let306 (ff.mul let305 let89)))
  (let ((let307 (ff.add let306 let91 let281 let165)))
  (let ((let308 (ff.add let306 let69)))
  (let ((let309 (ff.mul let92 let308)))
  (let ((let310 (= let309 let307)))
  (let ((let311 _79))
  (let ((let312 (ff.mul let311 let171)))
  (let ((let313 (= let312 let90)))
  (let ((let314 _50))
  (let ((let315 _78))
  (let ((let316 (ff.mul let315 let314)))
  (let ((let317 (= let316 let311)))
  (let ((let318 (ff.add let294 let69)))
  (let ((let319 (ff.add let266 let69)))
  (let ((let320 (ff.mul let319 let318)))
  (let ((let321 (= let320 let315)))
  (let ((let322 (ff.mul let314 let89)))
  (let ((let323 (ff.add let322 let69)))
  (let ((let324 (ff.mul let318 let323)))
  (let ((let325 (= let324 let107)))
  (let ((let326 _43))
  (let ((let327 (ff.mul let293 let326)))
  (let ((let328 (= let327 let108)))
  (let ((let329 _14))
  (let ((let330 (ff.mul let329 let89)))
  (let ((let331 (ff.add let330 let182 let180 let69)))
  (let ((let332 (ff.mul let331 let331)))
  (let ((let333 (= let332 let305)))
  (let ((let334 (ff.mul let314 let103)))
  (let ((let335 (= let334 let179)))
  (let ((let336 _3))
  (let ((let337 (ff.mul let323 let336)))
  (let ((let338 (= let337 let181)))
  (let ((let339 (ff.mul let77 let89)))
  (let ((let340 (ff.mul let270 let89)))
  (let ((let341 _46))
  (let ((let342 (ff.mul let341 let89)))
  (let ((let343 (ff.add let342 let340 let339 let165)))
  (let ((let344 (ff.add let342 let69)))
  (let ((let345 (ff.add let340 let69)))
  (let ((let346 (ff.mul let345 let344)))
  (let ((let347 (= let346 let343)))
  (let ((let348 (ff.add let294 let132 let340 let165)))
  (let ((let349 (ff.mul let133 let318)))
  (let ((let350 (= let349 let348)))
  (let ((let351 (ff.mul let161 let89)))
  (let ((let352 (ff.add let266 let351 let69)))
  (let ((let353 (ff.mul let352 let352)))
  (let ((let354 (= let353 let131)))
  (let ((let355 (ff.add let265 let121 let89)))
  (let ((let356 (ff.mul let355 let355)))
  (let ((let357 (= let356 let161)))
  (let ((let358 (ff.add let229 let314 let169 let69)))
  (let ((let359 (ff.mul let230 let314)))
  (let ((let360 (= let359 let358)))
  (let ((let361 (ff.mul let326 let89)))
  (let ((let362 _7))
  (let ((let363 (ff.add let362 let361)))
  (let ((let364 (ff.mul let363 let363)))
  (let ((let365 (= let364 let314)))
  (let ((let366 (ff.add let224 let236 let234)))
  (let ((let367 (ff.mul let366 let366)))
  (let ((let368 (= let367 let341)))
  (let ((let369 _44))
  (let ((let370 (ff.mul let336 let89)))
  (let ((let371 (ff.add let370 let326)))
  (let ((let372 (ff.mul let371 let371)))
  (let ((let373 (= let372 let369)))
  (let ((let374 _42))
  (let ((let375 (ff.add let293 let374 let361)))
  (let ((let376 (ff.mul let374 let293)))
  (let ((let377 (= let376 let375)))
  (let ((let378 (ff.mul let374 let89)))
  (let ((let379 _41))
  (let ((let380 (ff.add let235 let233 let379 let378)))
  (let ((let381 (ff.add let235 let233)))
  (let ((let382 (ff.mul let379 let381)))
  (let ((let383 (= let382 let380)))
  (let ((let384 (ff.mul let379 let89)))
  (let ((let385 _40))
  (let ((let386 _24))
  (let ((let387 (ff.add let386 let385 let384)))
  (let ((let388 (ff.mul let385 let386)))
  (let ((let389 (= let388 let387)))
  (let ((let390 (ff.mul let385 let89)))
  (let ((let391 _29))
  (let ((let392 (ff.mul let391 let89)))
  (let ((let393 (ff.add let392 let235 let233 let390 let69)))
  (let ((let394 (ff.add let392 let69)))
  (let ((let395 (ff.mul let394 let381)))
  (let ((let396 (= let395 let393)))
  (let ((let397 (ff.add let392 let265 let294 let69)))
  (let ((let398 (ff.mul let394 let265)))
  (let ((let399 (= let398 let397)))
  (let ((let400 (ff.add let386 let235 let233 let266)))
  (let ((let401 (ff.mul let381 let386)))
  (let ((let402 (= let401 let400)))
  (let ((let403 (ff.add let370 let69)))
  (let ((let404 (ff.mul let403 let394)))
  (let ((let405 (= let404 let233)))
  (let ((let406 (ff.mul let336 let386)))
  (let ((let407 (= let406 let235)))
  (let ((let408 _12))
  (let ((let409 (ff.mul let408 let89)))
  (let ((let410 _11))
  (let ((let411 (ff.mul let410 let89)))
  (let ((let412 (ff.add let288 let411 let409)))
  (let ((let413 (ff.mul let412 let412)))
  (let ((let414 (= let413 let391)))
  (let ((let415 (ff.mul let362 let89)))
  (let ((let416 (ff.add let415 let187)))
  (let ((let417 (ff.mul let416 let416)))
  (let ((let418 (= let417 let224)))
  (let ((let419 (ff.add let411 let409 let228 let188 let69)))
  (let ((let420 (ff.add let411 let409 let69)))
  (let ((let421 (ff.mul let420 let228)))
  (let ((let422 (= let421 let419)))
  (let ((let423 (ff.mul let386 let89)))
  (let ((let424 (ff.add let288 let423 let229 let69)))
  (let ((let425 (ff.add let423 let69)))
  (let ((let426 (ff.mul let425 let288)))
  (let ((let427 (= let426 let424)))
  (let ((let428 _23))
  (let ((let429 (ff.mul let428 let217)))
  (let ((let430 (= let429 let386)))
  (let ((let431 _22))
  (let ((let432 (ff.mul let431 let362)))
  (let ((let433 (= let432 let428)))
  (let ((let434 (ff.add let410 let408)))
  (let ((let435 _21))
  (let ((let436 (ff.mul let435 let434)))
  (let ((let437 (= let436 let431)))
  (let ((let438 _20))
  (let ((let439 (ff.mul let438 let329)))
  (let ((let440 (= let439 let435)))
  (let ((let441 _19))
  (let ((let442 (ff.mul let441 let217)))
  (let ((let443 (= let442 let438)))
  (let ((let444 _18))
  (let ((let445 (ff.mul let444 let329)))
  (let ((let446 (= let445 let441)))
  (let ((let447 _17))
  (let ((let448 (ff.mul let447 let434)))
  (let ((let449 (= let448 let444)))
  (let ((let450 _2))
  (let ((let451 _16))
  (let ((let452 (ff.mul let451 let450)))
  (let ((let453 (= let452 let447)))
  (let ((let454 _15))
  (let ((let455 (ff.mul let454 let450)))
  (let ((let456 (= let455 let451)))
  (let ((let457 (ff.mul let362 let329)))
  (let ((let458 (= let457 let454)))
  (let ((let459 (ff.add let288 let370 let330 let69)))
  (let ((let460 (ff.mul let403 let288)))
  (let ((let461 (= let460 let459)))
  (let ((let462 (ff.mul let450 let89)))
  (let ((let463 (ff.add let462 let69)))
  (let ((let464 (ff.mul let463 let288)))
  (let ((let465 (= let464 let408)))
  (let ((let466 (ff.mul let450 let217)))
  (let ((let467 (= let466 let410)))
  (let ((let468 (ff.add let103 let288 let415)))
  (let ((let469 (ff.mul let288 let103)))
  (let ((let470 (= let469 let468)))
  (let ((let471 _5))
  (let ((let472 (ff.mul let471 let103)))
  (let ((let473 (= let472 let217)))
  (let ((let474 _4))
  (let ((let475 (ff.mul let474 let336)))
  (let ((let476 (= let475 let471)))
  (let ((let477 (ff.mul let103 let450)))
  (let ((let478 (= let477 let474)))
  (let ((let479 (ff.mul let336 let336)))
  (let ((let480 (= let479 let336)))
  (let ((let481 (ff.mul let450 let450)))
  (let ((let482 (= let481 let450)))
  (let ((let483 (ff.mul let288 let288)))
  (let ((let484 (= let483 let288)))
  (let ((let485 (ff.mul let103 let103)))
  (let ((let486 (= let485 let103)))
  (let ((let487 (and let486 let484 let482 let480 let478 let476 let473 let470 let467 let465 let461 let458 let456 let453 let449 let446 let443 let440 let437 let433 let430 let427 let422 let418 let414 let407 let405 let402 let399 let396 let389 let383 let377 let373 let368 let365 let360 let357 let354 let350 let347 let338 let335 let333 let328 let325 let321 let317 let313 let310 let304 let301 let297 let291 let286 let284 let280 let273 let269 let264 let260 let253 let248 let244 let239 let232 let227 let221 let213 let208 let202 let197 let191 let185 let178 let174 let164 let158 let150 let146 let140 let136 let130 let124 let120 let116 let112 let106 let101 let95 let88 let84 let80)))
  (let ((let488 (ite let0 let69 let72)))
  (let ((let489 (= let103 let488)))
  (let ((let490 (ite let3 let69 let72)))
  (let ((let491 (= let450 let490)))
  (let ((let492 (ite let1 let69 let72)))
  (let ((let493 (= let288 let492)))
  (let ((let494 (ite let2 let69 let72)))
  (let ((let495 (= let336 let494)))
  (let ((let496 (and let495 let493 let491 let489)))
  (let ((let497 (and let496 let487)))
  (let ((let498 (=> let497 let75)))
  (let ((let499 (not let498)))
  let499
))))))))))))))))))))))))))))))))))))))))))))))))))))))))))))))))))))))))))))))))))))))))))))))))))))))))))))))))))))))))))))))))))))))))))))))))))))))))))))))))))))))))))))))))))))))))))))))))))))))))))))))))))))))))))))))))))))))))))))))))))))))))))))))))))))))))))))))))))))))))))))))))))))))))))))))))))))))))))))))))))))))))))))))))))))))))))))))))))))))))))))))))))))))))))))))))))))))))))))))))))))))))))))))))))))))))))))))))))))))))))))))))))))))))))))))))))))))))))))))))))))))))))))))))))))
)
(check-sat)
